(declare-sort fun1 0)
(declare-sort fun12 0)
(declare-datatype list2 ((nil2) (cons2 (head2 Int) (tail2 list2))))
(declare-datatype list ((nil) (cons (head list2) (tail list))))
(declare-fun lam (Int) fun12)
(declare-const lam2 fun1)
(declare-fun apply1 (fun1 Int) fun12)
(declare-fun apply12 (fun12 Int) Bool)
(define-fun-rec
  risers
  ((x list2)) list
  (match x
    ((nil2 nil)
     ((cons2 y z)
      (match z
        ((nil2 (cons (cons2 y nil2) nil))
         ((cons2 y2 xs)
          (ite
            (<= y y2)
            (match (risers (cons2 y2 xs))
              ((nil nil)
               ((cons ys yss) (cons (cons2 y ys) yss))))
            (cons (cons2 y nil2) (risers (cons2 y2 xs)))))))))))
(define-fun-rec
  lmerge
  ((x list2) (y list2)) list2
  (match x
    ((nil2 y)
     ((cons2 z x2)
      (match y
        ((nil2 (cons2 z x2))
         ((cons2 x3 x4)
          (ite
            (<= z x3) (cons2 z (lmerge x2 (cons2 x3 x4)))
            (cons2 x3 (lmerge (cons2 z x2) x4))))))))))
(define-fun-rec
  pairwise
  ((x list)) list
  (match x
    ((nil nil)
     ((cons xs y)
      (match y
        ((nil (cons xs nil))
         ((cons ys xss) (cons (lmerge xs ys) (pairwise xss)))))))))
(define-fun-rec
  mergingbu2
  ((x list)) list2
  (match x
    ((nil nil2)
     ((cons xs y)
      (match y
        ((nil xs)
         ((cons z x2) (mergingbu2 (pairwise (cons xs (cons z x2)))))))))))
(define-fun
  msortbu2
  ((x list2)) list2 (mergingbu2 (risers x)))
(define-fun-rec
  elem
  ((x Int) (y list2)) Bool
  (match y
    ((nil2 false)
     ((cons2 z xs) (or (= z x) (elem x xs))))))
(define-fun-rec
  deleteBy
  ((x fun1) (y Int) (z list2)) list2
  (match z
    ((nil2 nil2)
     ((cons2 y2 ys)
      (ite (apply12 (apply1 x y) y2) ys (cons2 y2 (deleteBy x y ys)))))))
(define-fun-rec
  isPermutation
  ((x list2) (y list2)) Bool
  (match x
    ((nil2
      (match y
        ((nil2 true)
         ((cons2 z x2) false))))
     ((cons2 x3 xs)
      (and (elem x3 y) (isPermutation xs (deleteBy lam2 x3 y)))))))
(assert (forall ((x4 Int)) (= (apply1 lam2 x4) (lam x4))))
(assert
  (forall ((x4 Int) (x5 Int)) (= (apply12 (lam x4) x5) (= x4 x5))))
(assert
  (not (forall ((xs list2)) (isPermutation (msortbu2 xs) xs))))
(check-sat)
